SCIP version 5.0.0 [precision: 8 byte] [memory: block] [mode: optimized] [LP solver: NONE] [GitHash: 3bbd232]
Copyright (C) 2002-2017 Konrad-Zuse-Zentrum fuer Informationstechnik Berlin (ZIB)

External codes: 
  Readline 6.3         GNU library for command line editing (gnu.org/s/readline)
  CppAD 20160000.1     Algorithmic Differentiation of C++ algorithms developed by B. Bell (www.coin-or.org/CppAD)
  ZLIB 1.2.8           General purpose compression library by J. Gailly and M. Adler (zlib.net)
  GMP 6.1.0            GNU Multiple Precision Arithmetic Library developed by T. Granlund (gmplib.org)

user parameter file <scip.set> not found - using default parameters

read problem <../../data/statG.logreg>
============

File name	:	../../data/statG.logreg
Problem name 	:	statG
Number of data	:	1000
Number of var	:	61
The given data has linear dependence
13 sets of column vector are linearly dependent:

[dim=1] time: 0.180161
[dim=2] time: 0.342248
[dim=3] time: 0.496521
[dim=4] time: 0.654542
[dim=5] time: 0.788938
[dim=6] time: 0.919005
[dim=7] time: 1.05159
[dim=8] time: 1.18173
[dim=9] time: 1.30809
[dim=10] time: 1.4315
[dim=11] time: 1.55753
[dim=12] time: 1.68252
[dim=13] time: 1.80454
[dim=14] time: 1.92782
[dim=15] time: 2.04972
[dim=16] time: 2.17158
[dim=17] time: 2.29034
[dim=18] time: 2.40657
[dim=19] time: 2.5205
[dim=20] time: 2.63099
[dim=21] time: 2.73353
[dim=22] time: 2.82802
[dim=23] time: 2.91931
[dim=24] time: 3.00676
[dim=25] Time of forward = 3.09114sec.
AIC: 958.148
k: 24

[dim=48] time: 0.222863
[dim=47] time: 0.383723
[dim=46] time: 0.53579
[dim=45] time: 0.692491
[dim=44] time: 0.8433
[dim=43] time: 0.96563
[dim=42] time: 1.09412
[dim=41] time: 1.21779
[dim=40] time: 1.3351
[dim=39] time: 1.4732
[dim=38] time: 1.58444
[dim=37] time: 1.69228
[dim=36] time: 1.79473
[dim=35] time: 1.89436
[dim=34] time: 2.00324
[dim=33] time: 2.09823
[dim=32] time: 2.20161
[dim=31] time: 2.29223
[dim=30] time: 2.38408
[dim=29] time: 2.47253
[dim=28] Time of backward = 2.54599sec.
AIC: 963.696
k: 29
